100 500 10 200 10 100
40 196
15 18
23 59
18 65
40 78
82 19
48 184
22 14
93 73
60 123
16 88
11 184
100 65
10 61
85 76
49 147
98 152
39 72
95 78
63 89
14 49
84 195
52 57
19 119
81 95
48 141
16 82
40 23
54 44
56 54
80 181
70 46
65 20
14 134
99 34
46 55
65 154
72 140
79 93
67 143
67 112
62 173
34 51
42 186
48 82
33 39
46 73
21 39
54 174
23 162
46 28
71 137
96 123
33 26
77 169
50 14
21 87
15 108
20 185
77 35
89 123
93 163
55 175
88 91
83 176
30 190
40 104
82 19
87 46
63 53
20 38
96 107
32 56
85 43
11 97
54 140
24 167
77 49
50 138
48 111
45 195
13 151
22 70
10 136
15 39
62 133
83 58
65 195
22 43
47 178
63 139
30 162
37 63
63 68
78 131
63 149
31 135
51 67
14 103
43 123
